unknown
(model
; cardinality of BoundSet is 2
(declare-sort BoundSet 0)
; rep: @uc_BoundSet_0
; rep: @uc_BoundSet_1
; cardinality of UnboundSet is 1
(declare-sort UnboundSet 0)
(declare-fun groundTerm_3 () UnboundSet)
(define-fun WillResultInFloodingIn ((BOUND_VARIABLE_414 BoundSet)) Bool true)
(define-fun IsConvictedOfCrimes ((BOUND_VARIABLE_414 BoundSet)) Bool true)
(define-fun IsStaying ((BOUND_VARIABLE_414 BoundSet)) Bool true)
(define-fun IsElected ((BOUND_VARIABLE_414 BoundSet)) Bool false)
(define-fun WillBecomeDark ((BOUND_VARIABLE_414 BoundSet)) Bool false)
)
sat
(model
; cardinality of BoundSet is 1
(declare-sort BoundSet 0)
; rep: @uc_BoundSet_0
; cardinality of UnboundSet is 1
(declare-sort UnboundSet 0)
(declare-fun groundTerm_5 () UnboundSet)
(define-fun WillResultInFloodingIn ((BOUND_VARIABLE_445 BoundSet)) Bool true)
(define-fun IsConvictedOfCrimes ((BOUND_VARIABLE_445 BoundSet)) Bool true)
(define-fun IsStaying ((BOUND_VARIABLE_445 BoundSet)) Bool true)
(define-fun IsElected ((BOUND_VARIABLE_445 BoundSet)) Bool false)
(define-fun WillBecomeDark ((BOUND_VARIABLE_445 BoundSet)) Bool false)
)
